w = 10;
h = 10;
n = 9;
m = 16;
rect_size = [|
6, 2|
2, 6|
4, 4|
4, 4|
2, 4|
4, 2|
4, 2|
2, 4|
4, 2|
2, 4|
2, 4|
4, 2|
2, 6|
6, 2|
2, 6|
6, 2|];
rect_offset = [|
0, 0|
0, 0|
0, 0|
0, 0|
0, 0|
0, 0|
0, 0|
0, 0|
0, 0|
0, 0|
0, 0|
0, 0|
0, 0|
0, 0|
0, 0|
0, 0|];
shape = [{1}, {2}, {3}, {4}, {5}, {6}, {7}, {8}, {9}, {10}, {11}, {12}, {13}, {14}, {15}, {16}];
shapeind = [{1, 2}, {3}, {4}, {5, 6}, {7, 8}, {9, 10}, {11, 12}, {13, 14}, {15, 16}];
ncopy = [1, 2, 2, 2, 2];
c = 5;
